0 4367
2401 4228
4802 4121
7203 4072
9604 4014
12005 3968
14406 3926
16807 3884
19208 3825
21609 3789
24010 3768
26411 3730
28812 3708
31213 3684
33614 3663
36015 3660
38416 3630
40817 3618
43218 3604
45619 3603
48020 3591
50421 3585
52822 3577
55223 3571
57624 3565
